StudentsNr = 10;
InstructorsNr = 77;
DaysNr = 1;
SlotsPerDay = 40;
AvailabilitySlotsLenght = 5;
RoomNr = 1;
ProgrammNr = 1;
DegreeNr = 1;
RolesNr = 4;
CoursesNr = 8;
InstructorsProgramm = [{1}, {1}, {1}, {1}, {1}, {1}, {1}, {1}, {1}, {1}, {1}, {1}, {1}, {1}, {1}, {1}, {1}, {1}, {1}, {1}, {1}, {1}, {1}, {1}, {1}, {1}, {1}, {1}, {1}, {1}, {1}, {1}, {1}, {1}, {1}, {1}, {1}, {1}, {1}, {1}, {1}, {1}, {1}, {1}, {1}, {1}, {1}, {1}, {1}, {1}, {1}, {1}, {1}, {1}, {1}, {1}, {1}, {1}, {1}, {1}, {1}, {1}, {1}, {1}, {1}, {1}, {1}, {1}, {1}, {1}, {1}, {1}, {1}, {1}, {1}, {1}, {1}];
InstructorRolesPerProgramm = [|{1, 7, 10, 20, 21, 25, 29, 30, 35, 38, 39, 45, 46, 47, 50, 54, 55, 57, 58, 60, 61, 62, 63, 64, 68, 69, 75}, {10, 16, 17, 20, 21, 23, 27, 29, 30, 32, 33, 34, 35, 42, 44, 46, 47, 49, 50, 56, 57, 59, 62, 67, 74, 77}, {5, 7, 9, 10, 13, 16, 23, 26, 30, 35, 36, 37, 39, 40, 44, 46, 49, 52, 54, 58, 61, 62, 72, 74, 76}, {1, 9, 13, 16, 17, 23, 24, 26, 27, 29, 33, 37, 42, 45, 47, 48, 52, 54, 55, 58, 60, 62, 65, 66, 68, 74, 76}|];
InstructorsAvailability = [|1, 0, 1, 1, 1, 1, 1, 1, |0, 1, 1, 1, 1, 0, 1, 1, |0, 0, 0, 0, 0, 1, 1, 1, |0, 1, 1, 0, 1, 1, 1, 1, |1, 1, 1, 0, 0, 1, 1, 0, |0, 1, 1, 1, 1, 1, 1, 1, |0, 0, 1, 1, 1, 1, 1, 1, |0, 1, 1, 1, 1, 1, 1, 1, |0, 0, 1, 0, 1, 1, 1, 1, |1, 0, 1, 0, 0, 1, 1, 1, |0, 1, 1, 1, 1, 1, 0, 1, |0, 1, 1, 1, 0, 0, 0, 0, |0, 1, 0, 1, 1, 0, 1, 1, |0, 1, 1, 1, 1, 1, 0, 1, |1, 1, 1, 1, 1, 1, 1, 1, |0, 0, 0, 0, 1, 1, 1, 0, |0, 0, 0, 1, 0, 0, 0, 0, |0, 1, 1, 1, 1, 0, 1, 1, |0, 1, 0, 1, 1, 0, 0, 1, |0, 0, 0, 1, 1, 1, 1, 1, |1, 1, 1, 1, 0, 1, 0, 1, |0, 1, 1, 1, 1, 1, 1, 1, |0, 1, 1, 1, 1, 1, 1, 1, |0, 0, 1, 1, 1, 1, 1, 1, |0, 0, 1, 1, 1, 1, 1, 1, |0, 1, 1, 1, 1, 1, 1, 1, |1, 1, 0, 1, 1, 1, 1, 1, |1, 1, 1, 1, 0, 0, 1, 1, |1, 1, 1, 1, 1, 1, 1, 1, |0, 0, 0, 1, 0, 0, 0, 0, |0, 0, 1, 1, 1, 0, 1, 1, |1, 1, 0, 1, 0, 0, 1, 1, |0, 0, 1, 1, 1, 1, 1, 1, |1, 0, 0, 0, 1, 1, 1, 1, |0, 1, 1, 1, 1, 1, 1, 1, |0, 1, 0, 1, 1, 1, 1, 0, |0, 0, 1, 1, 1, 1, 0, 0, |1, 1, 1, 1, 1, 1, 1, 1, |0, 0, 0, 1, 1, 1, 1, 1, |0, 0, 1, 1, 1, 0, 1, 1, |0, 1, 1, 1, 1, 1, 0, 1, |0, 1, 1, 1, 1, 1, 1, 1, |0, 1, 1, 1, 1, 1, 1, 1, |1, 1, 1, 1, 1, 1, 0, 1, |1, 1, 1, 1, 0, 1, 1, 0, |0, 1, 1, 1, 1, 1, 0, 1, |0, 0, 0, 1, 1, 1, 1, 1, |0, 0, 0, 1, 1, 1, 1, 1, |1, 1, 1, 1, 1, 1, 0, 1, |1, 0, 1, 0, 0, 0, 0, 0, |0, 1, 1, 0, 1, 1, 1, 1, |1, 0, 0, 1, 0, 1, 1, 1, |1, 1, 1, 1, 1, 1, 1, 1, |0, 0, 1, 1, 0, 0, 1, 1, |1, 1, 1, 1, 1, 1, 1, 1, |1, 1, 1, 1, 1, 1, 1, 1, |0, 0, 1, 1, 1, 0, 0, 1, |0, 1, 1, 1, 1, 1, 1, 1, |1, 1, 1, 1, 1, 1, 1, 1, |1, 1, 1, 1, 0, 1, 1, 0, |1, 1, 1, 1, 1, 1, 1, 1, |1, 1, 1, 0, 1, 1, 1, 1, |0, 1, 1, 1, 1, 1, 1, 1, |0, 1, 0, 0, 0, 0, 1, 1, |1, 1, 1, 0, 1, 1, 1, 1, |0, 1, 1, 1, 1, 1, 1, 1, |0, 0, 0, 0, 1, 1, 0, 1, |1, 1, 1, 0, 1, 1, 1, 1, |0, 0, 1, 1, 1, 1, 1, 1, |0, 0, 0, 0, 0, 0, 0, 1, |0, 0, 0, 0, 1, 1, 1, 0, |1, 1, 1, 1, 1, 1, 1, 1, |0, 1, 1, 1, 1, 1, 1, 1, |1, 0, 1, 1, 0, 1, 1, 0, |1, 1, 1, 1, 1, 1, 1, 1, |0, 1, 1, 1, 1, 0, 1, 0, |1, 1, 1, 1, 1, 1, 1, 1|];
StudentsProgramm = [1, 1, 1, 1, 1, 1, 1, 1, 1, 1];
StudentsDegree = [1, 1, 1, 1, 1, 1, 1, 1, 1, 1];
StudentsSupervisorId = [32, 48, 49, 72, 18, 68, 35, 30, 21, 24];
StudentsCourseIds = [{1, 3, 4, 6, 8}, {1, 3, 5, 6, 7}, {1, 3, 4, 5, 6}, {1, 2, 3, 4, 7}, {2, 3, 5, 6, 7}, {1, 2, 3, 5, 7}, {1, 2, 6, 7, 8}, {2, 3, 4, 6, 8}, {1, 2, 3, 5, 7}, {1, 2, 3, 4, 8}];
StudentsAvailability = [|0, 1, 1, 1, 1, 1, 1, 1, |1, 0, 1, 1, 1, 1, 1, 1, |0, 1, 1, 1, 1, 1, 1, 1, |0, 0, 1, 0, 0, 1, 1, 1, |0, 0, 0, 1, 1, 1, 1, 1, |0, 0, 0, 1, 1, 1, 0, 1, |0, 1, 1, 1, 1, 1, 1, 1, |1, 1, 1, 1, 1, 1, 1, 1, |1, 1, 1, 1, 1, 1, 1, 1, |0, 1, 1, 1, 1, 0, 0, 1|];
TheoryticalMinCard = [0, 0, 0, 0, 0, 0, 0, 0, 0, 0];
CoursesInstructorIds = [{3, 5, 8, 9, 11, 15, 19, 26, 30, 46, 49, 52, 56, 58, 66, 68, 75, 76}, {3, 10, 30, 44, 55, 57, 58, 64, 69}, {19, 61}, {5, 7, 8, 11, 13, 14, 15, 18, 24, 26, 28, 29, 34, 38, 44, 49, 50, 51, 54, 55, 59, 70, 72, 76}, {4, 5, 6, 7, 9, 12, 13, 18, 24, 27, 29, 32, 42, 43, 49, 50, 53, 55, 57, 59, 60, 63, 66, 68, 72}, {1, 3, 6, 7, 8, 9, 10, 11, 12, 13, 15, 16, 18, 20, 21, 24, 25, 27, 30, 34, 35, 37, 38, 39, 40, 44, 46, 47, 50, 57, 58, 60, 61, 62, 63, 64, 66, 72, 75, 76}, {3, 6, 8, 12, 14, 20, 33, 36, 38, 51, 59, 62, 67, 72}, {15, 17, 23, 47, 52, 63, 64, 69}];
RolesDemands = [9, 17, 19, 4];
RolesContinuity = [];
ExamLen = [2, 2, 2, 2, 2, 2, 2, 2, 2, 2];
LunchTsMinLen = 1;
LunchStarts = [11..27];
SupervisorAvailable = 0;
OptimalLunchLenght = [1, 1];
OptimalStartTs = [1, 1];
OptimalFinishTs = [0, 40];
MinimizeRooms = 500;
RolesSoftContinuity = [|1, 2, 3, 4|0, 0, 4, 4|];
SameDegreeInRoom = 0;
Mergeability = 0;
